c ren 1 -> 1
c ren 2 -> 2
c ren 3 -> 3
c ren 4 -> 4
c ren 5 -> 5
c ren 6 -> 6
c ren 7 -> 7
c ren 8 -> 8
c ren 9 -> 9
c ren 10 -> 10
c ren 11 -> 11
c ren 12 -> 12
c ren 13 -> 13
c ren 14 -> 14
c ren 17 -> 15
c ren 18 -> 16
c ren 19 -> 17
c ren 20 -> 18
c ren 21 -> 19
c ren 22 -> 20
c ren 23 -> 21
c ren 24 -> 22
c ren 25 -> 23
c ren 26 -> 24
c ren 27 -> 25
c ren 28 -> 26
c ren 29 -> 27
c ren 30 -> 28
c ren 36 -> 29
c ren 40 -> 30
c ren 46 -> 31
c ren 51 -> 32
c ren 66 -> 33
p cnf 33 110
a 1 2 3 4 5 6 7 8 9 10 11 12 13 14 15 16 17 18 19 20 21 0
d 22 15 16 0
d 23 7 17 0
d 24 3 4 0
d 25 20 21 0
d 26 18 19 0
d 27 11 12 0
e 28 29 30 31 32 33 0
-15 -24 28 0
15 24 28 0
-15 24 -28 0
15 -24 -28 0
-1 -16 -29 0
1 2 -5 -16 29 0
5 -22 33 0
-2 -16 -29 0
1 2 -5 16 -29 0
5 -16 -29 0
1 2 3 4 -5 22 33 0
-2 -22 33 0
-1 -22 33 0
-1 16 29 0
29 33 0
-6 9 20 21 -28 -29 -30 -31 -32 -33 0
1 2 -17 30 0
1 2 17 -30 0
1 2 -3 5 -6 -24 33 0
30 33 0
-2 -6 20 21 -28 -29 -30 -31 -32 -33 0
-2 17 30 0
5 6 -18 31 0
5 6 18 -31 0
-6 18 31 0
-6 -18 -31 0
1 2 3 4 5 9 -10 24 33 0
31 33 0
-1 -6 20 21 -28 -29 -30 -31 -32 -33 0
-7 -19 -32 0
7 -8 -19 32 0
7 -8 19 -32 0
8 19 32 0
8 -19 -32 0
-7 19 32 0
32 33 0
1 2 -6 7 8 -9 20 -21 -28 -29 -30 -31 -32 -33 0
-5 -8 20 21 -28 -29 -30 -31 -32 -33 0
1 2 -4 5 7 8 9 -11 -24 33 0
28 33 0
1 2 5 6 7 8 -9 -20 -21 -24 -28 -29 -30 -31 -32 -33 0
1 2 5 6 7 8 9 10 -13 -14 -24 -27 33 0
-8 20 21 24 -28 -29 -30 -31 -32 -33 0
-6 -7 20 21 -28 -29 -30 -31 -32 -33 0
1 2 3 4 5 -7 24 33 0
-6 -8 20 21 -28 -29 -30 -31 -32 -33 0
-5 -7 20 21 -28 -29 -30 -31 -32 -33 0
5 6 9 -20 21 -24 -28 -29 -30 -31 -32 -33 0
-7 20 21 24 -28 -29 -30 -31 -32 -33 0
1 2 3 4 5 9 -13 24 33 0
1 2 3 4 5 6 7 8 9 10 11 12 13 -14 33 0
1 2 7 8 -9 20 -21 24 -28 -29 -30 -31 -32 -33 0
-2 5 6 -20 21 -24 -28 -29 -30 -31 -32 -33 0
-8 -25 33 0
-7 -25 33 0
9 -25 33 0
-2 -25 33 0
1 2 3 4 5 9 -11 24 33 0
-1 5 6 -20 21 -24 -28 -29 -30 -31 -32 -33 0
1 2 -7 -24 -26 33 0
1 2 -4 5 -6 -24 33 0
-3 -25 33 0
-2 20 21 24 -28 -29 -30 -31 -32 -33 0
-3 5 6 -23 -24 33 0
-4 -25 33 0
-2 5 6 -23 -24 33 0
-4 -22 33 0
1 2 3 4 5 6 7 8 -9 25 33 0
5 16 29 0
1 2 8 -24 -26 33 0
-1 17 30 0
-5 18 31 0
1 2 -3 5 7 8 9 -12 -24 33 0
1 2 3 4 5 6 7 -8 26 33 0
1 2 3 4 5 -6 24 33 0
1 2 -4 -24 -26 33 0
1 2 3 4 5 9 14 24 33 0
-1 -5 20 21 -28 -29 -30 -31 -32 -33 0
-1 -25 33 0
-2 16 29 0
-1 20 21 24 -28 -29 -30 -31 -32 -33 0
1 2 3 4 5 6 7 8 9 10 11 12 -13 27 33 0
-3 -22 33 0
1 2 -4 5 7 8 9 -10 -24 33 0
-6 -25 33 0
1 2 -4 5 7 8 9 -13 -24 -27 33 0
1 2 3 4 5 6 7 8 9 10 11 12 14 27 33 0
1 2 5 6 7 8 9 10 13 14 -24 -27 33 0
-2 -17 -30 0
1 2 3 4 5 9 -12 24 33 0
5 6 -8 -20 21 -24 -28 -29 -30 -31 -32 -33 0
1 2 3 4 5 -8 24 33 0
1 2 -3 5 7 8 9 -11 -24 33 0
-2 -5 20 21 -28 -29 -30 -31 -32 -33 0
1 2 -5 -24 -26 33 0
-5 -18 -31 0
-1 -17 -30 0
1 2 -3 -24 -26 33 0
5 6 -7 -20 21 -24 -28 -29 -30 -31 -32 -33 0
-5 9 20 21 -28 -29 -30 -31 -32 -33 0
1 2 -3 5 7 8 9 -13 -24 -27 33 0
-4 5 6 -23 -24 33 0
1 2 -4 5 7 8 9 -12 -24 33 0
1 2 3 4 5 6 -7 23 33 0
9 20 21 24 -28 -29 -30 -31 -32 -33 0
1 2 -6 -24 -26 33 0
1 2 -3 5 7 8 9 -10 -24 33 0
1 2 -5 7 8 -9 20 -21 -28 -29 -30 -31 -32 -33 0
-5 -25 33 0
-1 5 6 -23 -24 33 0
